c CNF file corresponding to a (partial) station packing problem.
p cnf 991 213
1 2 3 4 5 6 7 8 9 10 11 12 13 14 0
-1 -2 0
-1 -3 0
-1 -4 0
-1 -5 0
-1 -6 0
-1 -7 0
-1 -8 0
-1 -9 0
-1 -10 0
-1 -11 0
-1 -12 0
-1 -13 0
-1 -14 0
-2 -3 0
-2 -4 0
-2 -5 0
-2 -6 0
-2 -7 0
-2 -8 0
-2 -9 0
-2 -10 0
-2 -11 0
-2 -12 0
-2 -13 0
-2 -14 0
-3 -4 0
-3 -5 0
-3 -6 0
-3 -7 0
-3 -8 0
-3 -9 0
-3 -10 0
-3 -11 0
-3 -12 0
-3 -13 0
-3 -14 0
-4 -5 0
-4 -6 0
-4 -7 0
-4 -8 0
-4 -9 0
-4 -10 0
-4 -11 0
-4 -12 0
-4 -13 0
-4 -14 0
-5 -6 0
-5 -7 0
-5 -8 0
-5 -9 0
-5 -10 0
-5 -11 0
-5 -12 0
-5 -13 0
-5 -14 0
-6 -7 0
-6 -8 0
-6 -9 0
-6 -10 0
-6 -11 0
-6 -12 0
-6 -13 0
-6 -14 0
-7 -8 0
-7 -9 0
-7 -10 0
-7 -11 0
-7 -12 0
-7 -13 0
-7 -14 0
-8 -9 0
-8 -10 0
-8 -11 0
-8 -12 0
-8 -13 0
-8 -14 0
-9 -10 0
-9 -11 0
-9 -12 0
-9 -13 0
-9 -14 0
-10 -11 0
-10 -12 0
-10 -13 0
-10 -14 0
-11 -12 0
-11 -13 0
-11 -14 0
-12 -13 0
-12 -14 0
-13 -14 0
976 977 978 979 980 981 982 983 984 985 986 987 988 989 990 991 0
-976 -977 0
-976 -978 0
-976 -979 0
-976 -980 0
-976 -981 0
-976 -982 0
-976 -983 0
-976 -984 0
-976 -985 0
-976 -986 0
-976 -987 0
-976 -988 0
-976 -989 0
-976 -990 0
-976 -991 0
-977 -978 0
-977 -979 0
-977 -980 0
-977 -981 0
-977 -982 0
-977 -983 0
-977 -984 0
-977 -985 0
-977 -986 0
-977 -987 0
-977 -988 0
-977 -989 0
-977 -990 0
-977 -991 0
-978 -979 0
-978 -980 0
-978 -981 0
-978 -982 0
-978 -983 0
-978 -984 0
-978 -985 0
-978 -986 0
-978 -987 0
-978 -988 0
-978 -989 0
-978 -990 0
-978 -991 0
-979 -980 0
-979 -981 0
-979 -982 0
-979 -983 0
-979 -984 0
-979 -985 0
-979 -986 0
-979 -987 0
-979 -988 0
-979 -989 0
-979 -990 0
-979 -991 0
-980 -981 0
-980 -982 0
-980 -983 0
-980 -984 0
-980 -985 0
-980 -986 0
-980 -987 0
-980 -988 0
-980 -989 0
-980 -990 0
-980 -991 0
-981 -982 0
-981 -983 0
-981 -984 0
-981 -985 0
-981 -986 0
-981 -987 0
-981 -988 0
-981 -989 0
-981 -990 0
-981 -991 0
-982 -983 0
-982 -984 0
-982 -985 0
-982 -986 0
-982 -987 0
-982 -988 0
-982 -989 0
-982 -990 0
-982 -991 0
-983 -984 0
-983 -985 0
-983 -986 0
-983 -987 0
-983 -988 0
-983 -989 0
-983 -990 0
-983 -991 0
-984 -985 0
-984 -986 0
-984 -987 0
-984 -988 0
-984 -989 0
-984 -990 0
-984 -991 0
-985 -986 0
-985 -987 0
-985 -988 0
-985 -989 0
-985 -990 0
-985 -991 0
-986 -987 0
-986 -988 0
-986 -989 0
-986 -990 0
-986 -991 0
-987 -988 0
-987 -989 0
-987 -990 0
-987 -991 0
-988 -989 0
-988 -990 0
-988 -991 0
-989 -990 0
-989 -991 0
-990 -991 0
